(declare-fun b_ack!1466 () (_ BitVec 64))
(declare-fun a_ack!1468 () (_ BitVec 32))
(declare-fun c_ack!1467 () (_ BitVec 64))
(assert (not (fp.leq ((_ to_fp 11 53) b_ack!1466) ((_ to_fp 11 53) #xbfe0000000000000))))
(assert (not (bvslt a_ack!1468 #x00000000)))
(assert (not (= #x00000000 a_ack!1468)))
(assert (not (= #x00000001 a_ack!1468)))
(assert (not (= #x00000002 a_ack!1468)))
(assert (not (= #x00000003 a_ack!1468)))
(assert (fp.eq ((_ to_fp 11 53) b_ack!1466) ((_ to_fp 11 53) #x0000000000000000)))
(assert (not (fp.geq ((_ to_fp 11 53) c_ack!1467) ((_ to_fp 11 53) #xbff0000000000000))))
(assert (fp.eq ((_ to_fp 11 53) b_ack!1466) ((_ to_fp 11 53) #x0000000000000000)))
(assert (fp.eq ((_ to_fp 11 53) b_ack!1466) ((_ to_fp 11 53) #x0000000000000000)))

(check-sat)
(exit)
